objective value:                                   -4
t_n_15                                              1 	(obj:-1)
t_n_1152                                            1 	(obj:-1)
t_n_1708                                            1 	(obj:-1)
t_n_1880                                            1 	(obj:-1)
